NAME : sim51.76500.tour
COMMENT : Length = 76500
COMMENT : Found by LKH [Keld Helsgaun] Tue Sep 11 17:50:44 2018
TYPE : TOUR
DIMENSION : 51
TOUR_SECTION
1
20
50
28
21
23
13
24
15
33
25
37
48
31
7
45
51
14
26
2
12
40
22
44
19
8
29
42
32
11
16
27
47
46
39
5
17
38
35
49
34
18
3
9
6
30
10
41
36
4
43
-1
EOF
